p cnf 151 148
-1 35 -2 3 10 13 15 21 22 40 42 62 85 98 107 126 128 -129 -130 -131 -132 -133 -134 -135 -137 -138 -139 -140 -141 -143 -144 -145 -146 -148 -150 -151 0 
-2 3 10 13 15 21 22 40 42 62 85 98 107 126 128 -129 -130 -131 -132 -133 -134 -135 -137 -138 -139 -140 -141 -143 -144 -145 -146 -148 -150 -151 0 
-3 2 10 13 15 21 22 40 42 62 85 98 107 126 129 -128 -130 -131 -132 -133 -134 -135 -137 -138 -139 -140 -141 -143 -144 -145 -146 -148 -150 -151 0 
-4 38 58 63 82 92 94 110 113 116 128 -129 -130 -131 -132 -133 -134 -135 -137 -138 -139 -140 -141 -143 -144 -145 -146 -148 -150 -151 0 
-5 6 14 17 18 43 48 56 57 65 66 81 83 84 88 99 100 101 105 106 109 117 119 127 130 -128 -129 -131 -132 -133 -134 -135 -137 -138 -139 -140 -141 -143 -144 -145 -146 -148 -150 -151 0 
-6 5 14 17 18 43 48 56 57 65 66 81 83 84 88 99 100 101 105 106 109 117 119 127 130 -128 -129 -131 -132 -133 -134 -135 -137 -138 -139 -140 -141 -143 -144 -145 -146 -148 -150 -151 0 
-7 130 -128 -129 -131 -132 -133 -134 -135 -137 -138 -139 -140 -141 -143 -144 -145 -146 -148 -150 -151 0 
-8 32 41 44 64 77 86 89 102 104 130 -128 -129 -131 -132 -133 -134 -135 -137 -138 -139 -140 -141 -143 -144 -145 -146 -148 -150 -151 0 
-9 -10 2 3 13 15 21 22 40 42 62 85 98 107 126 130 -128 -129 -131 -132 -133 -134 -135 -137 -138 -139 -140 -141 -143 -144 -145 -146 -148 -150 -151 0 
-3 2 10 13 15 21 22 40 42 62 85 98 107 126 -11 129 -128 -130 -131 -132 -133 -134 -135 -137 -138 -139 -140 -141 -143 -144 -145 -146 -148 -150 -151 0 
-9 -3 2 10 13 15 21 22 40 42 62 85 98 107 126 129 -128 -130 -131 -132 -133 -134 -135 -137 -138 -139 -140 -141 -143 -144 -145 -146 -148 -150 -151 0 
-3 2 10 13 15 21 22 40 42 62 85 98 107 126 -12 129 -128 -130 -131 -132 -133 -134 -135 -137 -138 -139 -140 -141 -143 -144 -145 -146 -148 -150 -151 0 
-9 -13 2 3 10 15 21 22 40 42 62 85 98 107 126 131 -128 -129 -130 -132 -133 -134 -135 -137 -138 -139 -140 -141 -143 -144 -145 -146 -148 -150 -151 0 
-14 5 6 17 18 43 48 56 57 65 66 81 83 84 88 99 100 101 105 106 109 117 119 127 129 -128 -130 -131 -132 -133 -134 -135 -137 -138 -139 -140 -141 -143 -144 -145 -146 -148 -150 -151 0 
-15 2 3 10 13 21 22 40 42 62 85 98 107 126 132 -128 -129 -130 -131 -133 -134 -135 -137 -138 -139 -140 -141 -143 -144 -145 -146 -148 -150 -151 0 
-16 19 20 23 30 34 45 47 53 59 67 70 71 72 80 90 115 120 121 131 -128 -129 -130 -132 -133 -134 -135 -137 -138 -139 -140 -141 -143 -144 -145 -146 -148 -150 -151 0 
-17 5 6 14 18 43 48 56 57 65 66 81 83 84 88 99 100 101 105 106 109 117 119 127 133 -128 -129 -130 -131 -132 -134 -135 -137 -138 -139 -140 -141 -143 -144 -145 -146 -148 -150 -151 0 
-18 5 6 14 17 43 48 56 57 65 66 81 83 84 88 99 100 101 105 106 109 117 119 127 133 -128 -129 -130 -131 -132 -134 -135 -137 -138 -139 -140 -141 -143 -144 -145 -146 -148 -150 -151 0 
-19 16 20 23 30 34 45 47 53 59 67 70 71 72 80 90 115 120 121 133 -128 -129 -130 -131 -132 -134 -135 -137 -138 -139 -140 -141 -143 -144 -145 -146 -148 -150 -151 0 
-20 16 19 23 30 34 45 47 53 59 67 70 71 72 80 90 115 120 121 134 -128 -129 -130 -131 -132 -133 -135 -137 -138 -139 -140 -141 -143 -144 -145 -146 -148 -150 -151 0 
-9 -21 2 3 10 13 15 22 40 42 62 85 98 107 126 134 -128 -129 -130 -131 -132 -133 -135 -137 -138 -139 -140 -141 -143 -144 -145 -146 -148 -150 -151 0 
-5 6 14 17 18 43 48 56 57 65 66 81 83 84 88 99 100 101 105 106 109 117 119 127 -10 2 3 13 15 21 22 40 42 62 85 98 107 126 130 -128 -129 -131 -132 -133 -134 -135 -137 -138 -139 -140 -141 -143 -144 -145 -146 -148 -150 -151 0 
-22 2 3 10 13 15 21 40 42 62 85 98 107 126 135 -128 -129 -130 -131 -132 -133 -134 -137 -138 -139 -140 -141 -143 -144 -145 -146 -148 -150 -151 0 
-23 16 19 20 30 34 45 47 53 59 67 70 71 72 80 90 115 120 121 136 -128 -129 -130 -131 -132 -133 -134 -135 -137 -138 -139 -140 -141 -143 -144 -145 -146 -148 -150 -151 0 
-24 55 79 93 96 137 -128 -129 -130 -131 -132 -133 -134 -135 -138 -139 -140 -141 -143 -144 -145 -146 -148 -150 -151 0 
-25 134 -128 -129 -130 -131 -132 -133 -135 -137 -138 -139 -140 -141 -143 -144 -145 -146 -148 -150 -151 0 
-26 108 123 136 -128 -129 -130 -131 -132 -133 -134 -135 -137 -138 -139 -140 -141 -143 -144 -145 -146 -148 -150 -151 0 
-27 138 -128 -129 -130 -131 -132 -133 -134 -135 -137 -139 -140 -141 -143 -144 -145 -146 -148 -150 -151 0 
-28 138 -128 -129 -130 -131 -132 -133 -134 -135 -137 -139 -140 -141 -143 -144 -145 -146 -148 -150 -151 0 
-29 139 -128 -129 -130 -131 -132 -133 -134 -135 -137 -138 -140 -141 -143 -144 -145 -146 -148 -150 -151 0 
-30 16 19 20 23 34 45 47 53 59 67 70 71 72 80 90 115 120 121 130 -128 -129 -131 -132 -133 -134 -135 -137 -138 -139 -140 -141 -143 -144 -145 -146 -148 -150 -151 0 
-10 2 3 13 15 21 22 40 42 62 85 98 107 126 -31 130 -128 -129 -131 -132 -133 -134 -135 -137 -138 -139 -140 -141 -143 -144 -145 -146 -148 -150 -151 0 
-10 2 3 13 15 21 22 40 42 62 85 98 107 126 -32 8 41 44 64 77 86 89 102 104 130 -128 -129 -131 -132 -133 -134 -135 -137 -138 -139 -140 -141 -143 -144 -145 -146 -148 -150 -151 0 
-10 2 3 13 15 21 22 40 42 62 85 98 107 126 -33 39 130 -128 -129 -131 -132 -133 -134 -135 -137 -138 -139 -140 -141 -143 -144 -145 -146 -148 -150 -151 0 
-34 16 19 20 23 30 45 47 53 59 67 70 71 72 80 90 115 120 121 130 -128 -129 -131 -132 -133 -134 -135 -137 -138 -139 -140 -141 -143 -144 -145 -146 -148 -150 -151 0 
-10 2 3 13 15 21 22 40 42 62 85 98 107 126 130 -128 -129 -131 -132 -133 -134 -135 -137 -138 -139 -140 -141 -143 -144 -145 -146 -148 -150 -151 0 
-10 2 3 13 15 21 22 40 42 62 85 98 107 126 -35 1 130 -128 -129 -131 -132 -133 -134 -135 -137 -138 -139 -140 -141 -143 -144 -145 -146 -148 -150 -151 0 
-36 130 -128 -129 -131 -132 -133 -134 -135 -137 -138 -139 -140 -141 -143 -144 -145 -146 -148 -150 -151 0 
-37 -7 130 -128 -129 -131 -132 -133 -134 -135 -137 -138 -139 -140 -141 -143 -144 -145 -146 -148 -150 -151 0 
-10 2 3 13 15 21 22 40 42 62 85 98 107 126 -38 4 58 63 82 92 94 110 113 116 130 -128 -129 -131 -132 -133 -134 -135 -137 -138 -139 -140 -141 -143 -144 -145 -146 -148 -150 -151 0 
-39 33 -8 32 41 44 64 77 86 89 102 104 130 -128 -129 -131 -132 -133 -134 -135 -137 -138 -139 -140 -141 -143 -144 -145 -146 -148 -150 -151 0 
-40 2 3 10 13 15 21 22 42 62 85 98 107 126 140 -128 -129 -130 -131 -132 -133 -134 -135 -137 -138 -139 -141 -143 -144 -145 -146 -148 -150 -151 0 
-39 33 -41 8 32 44 64 77 86 89 102 104 135 -128 -129 -130 -131 -132 -133 -134 -137 -138 -139 -140 -141 -143 -144 -145 -146 -148 -150 -151 0 
-9 -42 2 3 10 13 15 21 22 40 62 85 98 107 126 141 -128 -129 -130 -131 -132 -133 -134 -135 -137 -138 -139 -140 -143 -144 -145 -146 -148 -150 -151 0 
-43 5 6 14 17 18 48 56 57 65 66 81 83 84 88 99 100 101 105 106 109 117 119 127 129 -128 -130 -131 -132 -133 -134 -135 -137 -138 -139 -140 -141 -143 -144 -145 -146 -148 -150 -151 0 
-44 8 32 41 64 77 86 89 102 104 -21 2 3 10 13 15 22 40 42 62 85 98 107 126 134 -128 -129 -130 -131 -132 -133 -135 -137 -138 -139 -140 -141 -143 -144 -145 -146 -148 -150 -151 0 
-45 16 19 20 23 30 34 47 53 59 67 70 71 72 80 90 115 120 121 129 -128 -130 -131 -132 -133 -134 -135 -137 -138 -139 -140 -141 -143 -144 -145 -146 -148 -150 -151 0 
-46 141 -128 -129 -130 -131 -132 -133 -134 -135 -137 -138 -139 -140 -143 -144 -145 -146 -148 -150 -151 0 
-1 35 -41 8 32 44 64 77 86 89 102 104 135 -128 -129 -130 -131 -132 -133 -134 -137 -138 -139 -140 -141 -143 -144 -145 -146 -148 -150 -151 0 
-47 16 19 20 23 30 34 45 53 59 67 70 71 72 80 90 115 120 121 136 -128 -129 -130 -131 -132 -133 -134 -135 -137 -138 -139 -140 -141 -143 -144 -145 -146 -148 -150 -151 0 
-48 5 6 14 17 18 43 56 57 65 66 81 83 84 88 99 100 101 105 106 109 117 119 127 129 -128 -130 -131 -132 -133 -134 -135 -137 -138 -139 -140 -141 -143 -144 -145 -146 -148 -150 -151 0 
-49 131 -128 -129 -130 -132 -133 -134 -135 -137 -138 -139 -140 -141 -143 -144 -145 -146 -148 -150 -151 0 
-39 33 142 0 
-7 -10 2 3 13 15 21 22 40 42 62 85 98 107 126 130 -128 -129 -131 -132 -133 -134 -135 -137 -138 -139 -140 -141 -143 -144 -145 -146 -148 -150 -151 0 
-50 135 -128 -129 -130 -131 -132 -133 -134 -137 -138 -139 -140 -141 -143 -144 -145 -146 -148 -150 -151 0 
-50 130 -128 -129 -131 -132 -133 -134 -135 -137 -138 -139 -140 -141 -143 -144 -145 -146 -148 -150 -151 0 
-51 -52 143 -128 -129 -130 -131 -132 -133 -134 -135 -137 -138 -139 -140 -141 -144 -145 -146 -148 -150 -151 0 
-52 136 -128 -129 -130 -131 -132 -133 -134 -135 -137 -138 -139 -140 -141 -143 -144 -145 -146 -148 -150 -151 0 
-53 16 19 20 23 30 34 45 47 59 67 70 71 72 80 90 115 120 121 136 -128 -129 -130 -131 -132 -133 -134 -135 -137 -138 -139 -140 -141 -143 -144 -145 -146 -148 -150 -151 0 
-54 61 136 -128 -129 -130 -131 -132 -133 -134 -135 -137 -138 -139 -140 -141 -143 -144 -145 -146 -148 -150 -151 0 
-1 35 -8 32 41 44 64 77 86 89 102 104 130 -128 -129 -131 -132 -133 -134 -135 -137 -138 -139 -140 -141 -143 -144 -145 -146 -148 -150 -151 0 
-55 24 79 93 96 130 -128 -129 -131 -132 -133 -134 -135 -137 -138 -139 -140 -141 -143 -144 -145 -146 -148 -150 -151 0 
-56 5 6 14 17 18 43 48 57 65 66 81 83 84 88 99 100 101 105 106 109 117 119 127 138 -128 -129 -130 -131 -132 -133 -134 -135 -137 -139 -140 -141 -143 -144 -145 -146 -148 -150 -151 0 
-57 5 6 14 17 18 43 48 56 65 66 81 83 84 88 99 100 101 105 106 109 117 119 127 144 -128 -129 -130 -131 -132 -133 -134 -135 -137 -138 -139 -140 -141 -143 -145 -146 -148 -150 -151 0 
-57 5 6 14 17 18 43 48 56 65 66 81 83 84 88 99 100 101 105 106 109 117 119 127 -58 4 38 63 82 92 94 110 113 116 144 -128 -129 -130 -131 -132 -133 -134 -135 -137 -138 -139 -140 -141 -143 -145 -146 -148 -150 -151 0 
-59 16 19 20 23 30 34 45 47 53 67 70 71 72 80 90 115 120 121 -58 4 38 63 82 92 94 110 113 116 144 -128 -129 -130 -131 -132 -133 -134 -135 -137 -138 -139 -140 -141 -143 -145 -146 -148 -150 -151 0 
-60 138 -128 -129 -130 -131 -132 -133 -134 -135 -137 -139 -140 -141 -143 -144 -145 -146 -148 -150 -151 0 
-61 54 -62 2 3 10 13 15 21 22 40 42 85 98 107 126 138 -128 -129 -130 -131 -132 -133 -134 -135 -137 -139 -140 -141 -143 -144 -145 -146 -148 -150 -151 0 
-63 4 38 58 82 92 94 110 113 116 144 -128 -129 -130 -131 -132 -133 -134 -135 -137 -138 -139 -140 -141 -143 -145 -146 -148 -150 -151 0 
-64 8 32 41 44 77 86 89 102 104 144 -128 -129 -130 -131 -132 -133 -134 -135 -137 -138 -139 -140 -141 -143 -145 -146 -148 -150 -151 0 
-65 5 6 14 17 18 43 48 56 57 66 81 83 84 88 99 100 101 105 106 109 117 119 127 145 -128 -129 -130 -131 -132 -133 -134 -135 -137 -138 -139 -140 -141 -143 -144 -146 -148 -150 -151 0 
-66 5 6 14 17 18 43 48 56 57 65 81 83 84 88 99 100 101 105 106 109 117 119 127 136 -128 -129 -130 -131 -132 -133 -134 -135 -137 -138 -139 -140 -141 -143 -144 -145 -146 -148 -150 -151 0 
-67 16 19 20 23 30 34 45 47 53 59 70 71 72 80 90 115 120 121 136 -128 -129 -130 -131 -132 -133 -134 -135 -137 -138 -139 -140 -141 -143 -144 -145 -146 -148 -150 -151 0 
-68 146 -128 -129 -130 -131 -132 -133 -134 -135 -137 -138 -139 -140 -141 -143 -144 -145 -148 -150 -151 0 
-68 144 -128 -129 -130 -131 -132 -133 -134 -135 -137 -138 -139 -140 -141 -143 -145 -146 -148 -150 -151 0 
-69 129 -128 -130 -131 -132 -133 -134 -135 -137 -138 -139 -140 -141 -143 -144 -145 -146 -148 -150 -151 0 
-70 16 19 20 23 30 34 45 47 53 59 67 71 72 80 90 115 120 121 129 -128 -130 -131 -132 -133 -134 -135 -137 -138 -139 -140 -141 -143 -144 -145 -146 -148 -150 -151 0 
-71 16 19 20 23 30 34 45 47 53 59 67 70 72 80 90 115 120 121 129 -128 -130 -131 -132 -133 -134 -135 -137 -138 -139 -140 -141 -143 -144 -145 -146 -148 -150 -151 0 
-72 16 19 20 23 30 34 45 47 53 59 67 70 71 80 90 115 120 121 129 -128 -130 -131 -132 -133 -134 -135 -137 -138 -139 -140 -141 -143 -144 -145 -146 -148 -150 -151 0 
-10 2 3 13 15 21 22 40 42 62 85 98 107 126 -73 130 -128 -129 -131 -132 -133 -134 -135 -137 -138 -139 -140 -141 -143 -144 -145 -146 -148 -150 -151 0 
-10 2 3 13 15 21 22 40 42 62 85 98 107 126 -74 95 130 -128 -129 -131 -132 -133 -134 -135 -137 -138 -139 -140 -141 -143 -144 -145 -146 -148 -150 -151 0 
-75 -76 122 136 -128 -129 -130 -131 -132 -133 -134 -135 -137 -138 -139 -140 -141 -143 -144 -145 -146 -148 -150 -151 0 
-51 -75 -76 122 143 -128 -129 -130 -131 -132 -133 -134 -135 -137 -138 -139 -140 -141 -144 -145 -146 -148 -150 -151 0 
-77 8 32 41 44 64 86 89 102 104 141 -128 -129 -130 -131 -132 -133 -134 -135 -137 -138 -139 -140 -143 -144 -145 -146 -148 -150 -151 0 
-1 35 -42 2 3 10 13 15 21 22 40 62 85 98 107 126 141 -128 -129 -130 -131 -132 -133 -134 -135 -137 -138 -139 -140 -143 -144 -145 -146 -148 -150 -151 0 
-42 2 3 10 13 15 21 22 40 62 85 98 107 126 141 -128 -129 -130 -131 -132 -133 -134 -135 -137 -138 -139 -140 -143 -144 -145 -146 -148 -150 -151 0 
-78 -9 129 -128 -130 -131 -132 -133 -134 -135 -137 -138 -139 -140 -141 -143 -144 -145 -146 -148 -150 -151 0 
-79 24 55 93 96 147 -128 -129 -130 -131 -132 -133 -134 -135 -137 -138 -139 -140 -141 -143 -144 -145 -146 -148 -150 -151 -114 0 
-80 16 19 20 23 30 34 45 47 53 59 67 70 71 72 90 115 120 121 137 -128 -129 -130 -131 -132 -133 -134 -135 -138 -139 -140 -141 -143 -144 -145 -146 -148 -150 -151 0 
-78 129 -128 -130 -131 -132 -133 -134 -135 -137 -138 -139 -140 -141 -143 -144 -145 -146 -148 -150 -151 0 
-81 5 6 14 17 18 43 48 56 57 65 66 83 84 88 99 100 101 105 106 109 117 119 127 -82 4 38 58 63 92 94 110 113 116 134 -128 -129 -130 -131 -132 -133 -135 -137 -138 -139 -140 -141 -143 -144 -145 -146 -148 -150 -151 0 
-83 5 6 14 17 18 43 48 56 57 65 66 81 84 88 99 100 101 105 106 109 117 119 127 134 -128 -129 -130 -131 -132 -133 -135 -137 -138 -139 -140 -141 -143 -144 -145 -146 -148 -150 -151 0 
-3 2 10 13 15 21 22 40 42 62 85 98 107 126 -84 5 6 14 17 18 43 48 56 57 65 66 81 83 88 99 100 101 105 106 109 117 119 127 129 -128 -130 -131 -132 -133 -134 -135 -137 -138 -139 -140 -141 -143 -144 -145 -146 -148 -150 -151 0 
-9 -85 2 3 10 13 15 21 22 40 42 62 98 107 126 148 -128 -129 -130 -131 -132 -133 -134 -135 -137 -138 -139 -140 -141 -143 -144 -145 -146 -150 -151 0 
-86 8 32 41 44 64 77 89 102 104 129 -128 -130 -131 -132 -133 -134 -135 -137 -138 -139 -140 -141 -143 -144 -145 -146 -148 -150 -151 0 
-87 -41 8 32 44 64 77 86 89 102 104 135 -128 -129 -130 -131 -132 -133 -134 -137 -138 -139 -140 -141 -143 -144 -145 -146 -148 -150 -151 0 
-9 -41 8 32 44 64 77 86 89 102 104 135 -128 -129 -130 -131 -132 -133 -134 -137 -138 -139 -140 -141 -143 -144 -145 -146 -148 -150 -151 0 
-88 5 6 14 17 18 43 48 56 57 65 66 81 83 84 99 100 101 105 106 109 117 119 127 131 -128 -129 -130 -132 -133 -134 -135 -137 -138 -139 -140 -141 -143 -144 -145 -146 -148 -150 -151 0 
-58 4 38 63 82 92 94 110 113 116 -3 2 10 13 15 21 22 40 42 62 85 98 107 126 129 -128 -130 -131 -132 -133 -134 -135 -137 -138 -139 -140 -141 -143 -144 -145 -146 -148 -150 -151 0 
-89 8 32 41 44 64 77 86 102 104 -10 2 3 13 15 21 22 40 42 62 85 98 107 126 130 -128 -129 -131 -132 -133 -134 -135 -137 -138 -139 -140 -141 -143 -144 -145 -146 -148 -150 -151 0 
-90 16 19 20 23 30 34 45 47 53 59 67 70 71 72 80 115 120 121 129 -128 -130 -131 -132 -133 -134 -135 -137 -138 -139 -140 -141 -143 -144 -145 -146 -148 -150 -151 0 
-91 -92 4 38 58 63 82 94 110 113 116 131 -128 -129 -130 -132 -133 -134 -135 -137 -138 -139 -140 -141 -143 -144 -145 -146 -148 -150 -151 0 
-93 24 55 79 96 134 -128 -129 -130 -131 -132 -133 -135 -137 -138 -139 -140 -141 -143 -144 -145 -146 -148 -150 -151 0 
-94 4 38 58 63 82 92 110 113 116 130 -128 -129 -131 -132 -133 -134 -135 -137 -138 -139 -140 -141 -143 -144 -145 -146 -148 -150 -151 0 
-95 74 149 0 
-82 4 38 58 63 92 94 110 113 116 134 -128 -129 -130 -131 -132 -133 -135 -137 -138 -139 -140 -141 -143 -144 -145 -146 -148 -150 -151 0 
-96 24 55 79 93 -97 149 0 
-13 2 3 10 15 21 22 40 42 62 85 98 107 126 131 -128 -129 -130 -132 -133 -134 -135 -137 -138 -139 -140 -141 -143 -144 -145 -146 -148 -150 -151 0 
-96 24 55 79 93 149 0 
-96 24 55 79 93 -82 4 38 58 63 92 94 110 113 116 149 0 
-31 130 -128 -129 -131 -132 -133 -134 -135 -137 -138 -139 -140 -141 -143 -144 -145 -146 -148 -150 -151 0 
-98 2 3 10 13 15 21 22 40 42 62 85 107 126 136 -128 -129 -130 -131 -132 -133 -134 -135 -137 -138 -139 -140 -141 -143 -144 -145 -146 -148 -150 -151 0 
-99 5 6 14 17 18 43 48 56 57 65 66 81 83 84 88 100 101 105 106 109 117 119 127 136 -128 -129 -130 -131 -132 -133 -134 -135 -137 -138 -139 -140 -141 -143 -144 -145 -146 -148 -150 -151 0 
-100 5 6 14 17 18 43 48 56 57 65 66 81 83 84 88 99 101 105 106 109 117 119 127 130 -128 -129 -131 -132 -133 -134 -135 -137 -138 -139 -140 -141 -143 -144 -145 -146 -148 -150 -151 0 
-63 4 38 58 82 92 94 110 113 116 130 -128 -129 -131 -132 -133 -134 -135 -137 -138 -139 -140 -141 -143 -144 -145 -146 -148 -150 -151 0 
-6 5 14 17 18 43 48 56 57 65 66 81 83 84 88 99 100 101 105 106 109 117 119 127 -10 2 3 13 15 21 22 40 42 62 85 98 107 126 130 -128 -129 -131 -132 -133 -134 -135 -137 -138 -139 -140 -141 -143 -144 -145 -146 -148 -150 -151 0 
-101 5 6 14 17 18 43 48 56 57 65 66 81 83 84 88 99 100 105 106 109 117 119 127 -102 8 32 41 44 64 77 86 89 104 129 -128 -130 -131 -132 -133 -134 -135 -137 -138 -139 -140 -141 -143 -144 -145 -146 -148 -150 -151 0 
-85 2 3 10 13 15 21 22 40 42 62 98 107 126 -103 148 -128 -129 -130 -131 -132 -133 -134 -135 -137 -138 -139 -140 -141 -143 -144 -145 -146 -150 -151 0 
-104 8 32 41 44 64 77 86 89 102 -105 5 6 14 17 18 43 48 56 57 65 66 81 83 84 88 99 100 101 106 109 117 119 127 134 -128 -129 -130 -131 -132 -133 -135 -137 -138 -139 -140 -141 -143 -144 -145 -146 -148 -150 -151 0 
-85 2 3 10 13 15 21 22 40 42 62 98 107 126 -35 1 148 -128 -129 -130 -131 -132 -133 -134 -135 -137 -138 -139 -140 -141 -143 -144 -145 -146 -150 -151 0 
-31 -3 2 10 13 15 21 22 40 42 62 85 98 107 126 129 -128 -130 -131 -132 -133 -134 -135 -137 -138 -139 -140 -141 -143 -144 -145 -146 -148 -150 -151 0 
-3 2 10 13 15 21 22 40 42 62 85 98 107 126 -106 5 6 14 17 18 43 48 56 57 65 66 81 83 84 88 99 100 101 105 109 117 119 127 129 -128 -130 -131 -132 -133 -134 -135 -137 -138 -139 -140 -141 -143 -144 -145 -146 -148 -150 -151 0 
-107 2 3 10 13 15 21 22 40 42 62 85 98 126 136 -128 -129 -130 -131 -132 -133 -134 -135 -137 -138 -139 -140 -141 -143 -144 -145 -146 -148 -150 -151 0 
-108 26 123 130 -128 -129 -131 -132 -133 -134 -135 -137 -138 -139 -140 -141 -143 -144 -145 -146 -148 -150 -151 0 
-109 5 6 14 17 18 43 48 56 57 65 66 81 83 84 88 99 100 101 105 106 117 119 127 136 -128 -129 -130 -131 -132 -133 -134 -135 -137 -138 -139 -140 -141 -143 -144 -145 -146 -148 -150 -151 0 
-110 4 38 58 63 82 92 94 113 116 -50 -76 122 136 -128 -129 -130 -131 -132 -133 -134 -135 -137 -138 -139 -140 -141 -143 -144 -145 -146 -148 -150 -151 0 
-51 -76 122 143 -128 -129 -130 -131 -132 -133 -134 -135 -137 -138 -139 -140 -141 -144 -145 -146 -148 -150 -151 0 
-76 122 136 -128 -129 -130 -131 -132 -133 -134 -135 -137 -138 -139 -140 -141 -143 -144 -145 -146 -148 -150 -151 0 
-50 -111 130 -128 -129 -131 -132 -133 -134 -135 -137 -138 -139 -140 -141 -143 -144 -145 -146 -148 -150 -151 0 
-37 -41 8 32 44 64 77 86 89 102 104 135 -128 -129 -130 -131 -132 -133 -134 -137 -138 -139 -140 -141 -143 -144 -145 -146 -148 -150 -151 0 
-112 150 -128 -129 -130 -131 -132 -133 -134 -135 -137 -138 -139 -140 -141 -143 -144 -145 -146 -148 -151 0 
-113 4 38 58 63 82 92 94 110 116 135 -128 -129 -130 -131 -132 -133 -134 -137 -138 -139 -140 -141 -143 -144 -145 -146 -148 -150 -151 0 
-114 -115 16 19 20 23 30 34 45 47 53 59 67 70 71 72 80 90 120 121 141 -128 -129 -130 -131 -132 -133 -134 -135 -137 -138 -139 -140 -143 -144 -145 -146 -148 -150 -151 0 
-116 4 38 58 63 82 92 94 110 113 141 -128 -129 -130 -131 -132 -133 -134 -135 -137 -138 -139 -140 -143 -144 -145 -146 -148 -150 -151 0 
-46 -117 5 6 14 17 18 43 48 56 57 65 66 81 83 84 88 99 100 101 105 106 109 119 127 149 0 
-61 54 -118 129 -128 -130 -131 -132 -133 -134 -135 -137 -138 -139 -140 -141 -143 -144 -145 -146 -148 -150 -151 0 
-119 5 6 14 17 18 43 48 56 57 65 66 81 83 84 88 99 100 101 105 106 109 117 127 133 -128 -129 -130 -131 -132 -134 -135 -137 -138 -139 -140 -141 -143 -144 -145 -146 -148 -150 -151 0 
-120 16 19 20 23 30 34 45 47 53 59 67 70 71 72 80 90 115 121 133 -128 -129 -130 -131 -132 -134 -135 -137 -138 -139 -140 -141 -143 -144 -145 -146 -148 -150 -151 0 
-121 16 19 20 23 30 34 45 47 53 59 67 70 71 72 80 90 115 120 133 -128 -129 -130 -131 -132 -134 -135 -137 -138 -139 -140 -141 -143 -144 -145 -146 -148 -150 -151 0 
-76 122 129 -128 -130 -131 -132 -133 -134 -135 -137 -138 -139 -140 -141 -143 -144 -145 -146 -148 -150 -151 0 
-122 76 -76 122 129 -128 -130 -131 -132 -133 -134 -135 -137 -138 -139 -140 -141 -143 -144 -145 -146 -148 -150 -151 0 
-123 26 108 136 -128 -129 -130 -131 -132 -133 -134 -135 -137 -138 -139 -140 -141 -143 -144 -145 -146 -148 -150 -151 0 
-124 151 -128 -129 -130 -131 -132 -133 -134 -135 -137 -138 -139 -140 -141 -143 -144 -145 -146 -148 -150 0 
-104 8 32 41 44 64 77 86 89 102 134 -128 -129 -130 -131 -132 -133 -135 -137 -138 -139 -140 -141 -143 -144 -145 -146 -148 -150 -151 0 
-125 132 -128 -129 -130 -131 -133 -134 -135 -137 -138 -139 -140 -141 -143 -144 -145 -146 -148 -150 -151 0 
-126 2 3 10 13 15 21 22 40 42 62 85 98 107 151 -128 -129 -130 -131 -132 -133 -134 -135 -137 -138 -139 -140 -141 -143 -144 -145 -146 -148 -150 0 
-8 32 41 44 64 77 86 89 102 104 -10 2 3 13 15 21 22 40 42 62 85 98 107 126 130 -128 -129 -131 -132 -133 -134 -135 -137 -138 -139 -140 -141 -143 -144 -145 -146 -148 -150 -151 0 
-39 33 -127 5 6 14 17 18 43 48 56 57 65 66 81 83 84 88 99 100 101 105 106 109 117 119 139 -128 -129 -130 -131 -132 -133 -134 -135 -137 -138 -140 -141 -143 -144 -145 -146 -148 -150 -151 0 
